words_hard_train/6821.qaiger
aag 102 16 0 1 86
2
4
12
14
18
20
32
34
46
48
60
62
74
76
88
90
205
6 2 5
8 3 4
10 7 9
16 12 14
22 19 21
24 18 20
26 23 25
28 16 26
30 29 25
36 33 35
38 32 34
40 37 39
42 31 40
44 43 39
50 47 49
52 46 48
54 51 53
56 45 54
58 57 53
64 61 63
66 60 62
68 65 67
70 59 68
72 71 67
78 75 77
80 74 76
82 79 81
84 73 82
86 85 81
92 89 91
94 88 90
96 93 95
98 87 96
100 99 95
102 11 100
104 10 101
106 103 105
108 86 97
110 109 99
112 58 69
114 113 71
116 13 15
118 117 17
120 17 27
122 121 29
124 30 41
126 125 43
128 123 127
130 119 128
132 44 55
134 133 57
136 130 135
138 115 136
140 72 83
142 141 85
144 138 143
146 111 144
148 107 147
150 106 146
152 149 151
154 139 142
156 155 145
158 117 120
160 158 127
162 131 134
164 163 137
166 160 164
168 156 166
170 168 115
172 110 145
174 173 147
176 170 174
178 153 177
180 152 176
182 179 181
184 114 137
186 185 139
188 187 157
190 188 167
192 190 175
194 193 177
196 195 128
198 161 165
200 199 167
202 196 201
204 183 203
i0 2 y1[7]
i1 1 x1[7]
i2 2 y1[0]
i3 1 x1[0]
i4 2 y1[1]
i5 1 x1[1]
i6 2 y1[2]
i7 1 x1[2]
i8 2 y1[3]
i9 1 x1[3]
i10 2 y1[4]
i11 1 x1[4]
i12 2 y1[5]
i13 1 x1[5]
i14 2 y1[6]
i15 1 x1[6]
o0 bv[0]
c
simplified
  >
    << 1
      1
    subtract
      1
      add
        2 y1
        1 x1
