words_hard_train/6821.qaiger.qdimacs
p cnf 102 259
a 2 38 7 10 45 17 24 31 0
e 1 3 4 5 6 8 9 11 12 13 14 15 16 18 19 20 21 22 23 25 26 27 28 29 30 32 33 34 35 36 37 39 40 41 42 43 44 46 47 48 49 50 51 52 53 54 55 56 57 58 59 60 61 62 63 64 65 66 67 68 69 70 71 72 73 74 75 76 77 78 79 80 81 82 83 84 85 86 87 88 89 90 91 92 93 94 95 96 97 98 99 100 101 102 0
-1 2 3 0
1 -3 0
-2 -3 0
1 -2 4 0
-1 -4 0
2 -4 0
3 4 5 0
-3 -5 0
-4 -5 0
-6 -7 8 0
6 -8 0
7 -8 0
9 10 11 0
-9 -11 0
-10 -11 0
-9 -10 12 0
9 -12 0
10 -12 0
11 12 13 0
-11 -13 0
-12 -13 0
-8 -13 14 0
8 -14 0
13 -14 0
14 12 15 0
-14 -15 0
-12 -15 0
16 17 18 0
-16 -18 0
-17 -18 0
-16 -17 19 0
16 -19 0
17 -19 0
18 19 20 0
-18 -20 0
-19 -20 0
15 -20 21 0
-15 -21 0
20 -21 0
21 19 22 0
-21 -22 0
-19 -22 0
23 24 25 0
-23 -25 0
-24 -25 0
-23 -24 26 0
23 -26 0
24 -26 0
25 26 27 0
-25 -27 0
-26 -27 0
22 -27 28 0
-22 -28 0
27 -28 0
28 26 29 0
-28 -29 0
-26 -29 0
30 31 32 0
-30 -32 0
-31 -32 0
-30 -31 33 0
30 -33 0
31 -33 0
32 33 34 0
-32 -34 0
-33 -34 0
29 -34 35 0
-29 -35 0
34 -35 0
35 33 36 0
-35 -36 0
-33 -36 0
37 38 39 0
-37 -39 0
-38 -39 0
-37 -38 40 0
37 -40 0
38 -40 0
39 40 41 0
-39 -41 0
-40 -41 0
36 -41 42 0
-36 -42 0
41 -42 0
42 40 43 0
-42 -43 0
-40 -43 0
44 45 46 0
-44 -46 0
-45 -46 0
-44 -45 47 0
44 -47 0
45 -47 0
46 47 48 0
-46 -48 0
-47 -48 0
43 -48 49 0
-43 -49 0
48 -49 0
49 47 50 0
-49 -50 0
-47 -50 0
5 -50 51 0
-5 -51 0
50 -51 0
-5 50 52 0
5 -52 0
-50 -52 0
51 52 53 0
-51 -53 0
-52 -53 0
-43 48 54 0
43 -54 0
-48 -54 0
54 49 55 0
-54 -55 0
-49 -55 0
-29 34 56 0
29 -56 0
-34 -56 0
56 35 57 0
-56 -57 0
-35 -57 0
6 7 58 0
-6 -58 0
-7 -58 0
58 8 59 0
-58 -59 0
-8 -59 0
8 13 60 0
-8 -60 0
-13 -60 0
60 14 61 0
-60 -61 0
-14 -61 0
-15 20 62 0
15 -62 0
-20 -62 0
62 21 63 0
-62 -63 0
-21 -63 0
61 63 64 0
-61 -64 0
-63 -64 0
59 -64 65 0
-59 -65 0
64 -65 0
-22 27 66 0
22 -66 0
-27 -66 0
66 28 67 0
-66 -67 0
-28 -67 0
-65 67 68 0
65 -68 0
-67 -68 0
57 -68 69 0
-57 -69 0
68 -69 0
-36 41 70 0
36 -70 0
-41 -70 0
70 42 71 0
-70 -71 0
-42 -71 0
-69 71 72 0
69 -72 0
-71 -72 0
55 -72 73 0
-55 -73 0
72 -73 0
53 73 74 0
-53 -74 0
-73 -74 0
-53 -73 75 0
53 -75 0
73 -75 0
74 75 76 0
-74 -76 0
-75 -76 0
69 -71 77 0
-69 -77 0
71 -77 0
77 72 78 0
-77 -78 0
-72 -78 0
58 -60 79 0
-58 -79 0
60 -79 0
-79 63 80 0
79 -80 0
-63 -80 0
65 -67 81 0
-65 -81 0
67 -81 0
81 68 82 0
-81 -82 0
-68 -82 0
-80 -82 83 0
80 -83 0
82 -83 0
-78 -83 84 0
78 -84 0
83 -84 0
-84 57 85 0
84 -85 0
-57 -85 0
-55 72 86 0
55 -86 0
-72 -86 0
86 73 87 0
-86 -87 0
-73 -87 0
-85 -87 88 0
85 -88 0
87 -88 0
76 88 89 0
-76 -89 0
-88 -89 0
-76 -88 90 0
76 -90 0
88 -90 0
89 90 91 0
-89 -91 0
-90 -91 0
-57 68 92 0
57 -92 0
-68 -92 0
92 69 93 0
-92 -93 0
-69 -93 0
93 78 94 0
-93 -94 0
-78 -94 0
-94 83 95 0
94 -95 0
-83 -95 0
-95 87 96 0
95 -96 0
-87 -96 0
96 88 97 0
-96 -97 0
-88 -97 0
97 -64 98 0
-97 -98 0
64 -98 0
80 82 99 0
-80 -99 0
-82 -99 0
99 83 100 0
-99 -100 0
-83 -100 0
-98 100 101 0
98 -101 0
-100 -101 0
91 101 102 0
-91 -102 0
-101 -102 0
-102 0
